RT is False
Default write of storage_offers_DA.csv just to have a file (but constraint should be inactive)
Reading model...
...model read.
creating competitive generators file...
...competitive generators recorded.
Loading data...
.. day-ahead data read.
Compiling instance...
...instance created.
Creating Offer Mitigation (model will solve as dispatch if TRUE)...
NOTE: storage offers will not be mitigated
...storage offer mitigation file created
Converting model to MPEC...
...converted
NOTE: initial MIP solve with only storage competitive to get feasible solution
Solving...

Welcome to IBM(R) ILOG(R) CPLEX(R) Interactive Optimizer 12.9.0.0
  with Simplex, Mixed Integer & Barrier Optimizers
5725-A06 5725-A29 5724-Y48 5724-Y49 5724-Y54 5724-Y55 5655-Y21
Copyright IBM Corp. 1988, 2019.  All Rights Reserved.

Type 'help' for a list of available commands.
Type 'help' followed by a command name for more
information on commands.

CPLEX> Logfile 'cplex.log' closed.
Logfile 'C:\Users\Luke\Desktop\test919\logs\tmpzyujgian.cplex.log' open.
CPLEX> New value for parallel optimization mode: -1
CPLEX> New value for mixed integer optimality gap tolerance: 0.01
CPLEX> New value for integrality tolerance: 1e-09
CPLEX> New value for feasibility tolerance: 0.01
CPLEX> New value for deterministic time limit in ticks: 75000
CPLEX> Problem 'C:\Users\Luke\Desktop\test919\logs\tmpw22y3kyn.pyomo.lp' read.
Read time = 0.20 sec. (14.73 ticks)
CPLEX> Problem name         : C:\Users\Luke\Desktop\test919\logs\tmpw22y3kyn.pyomo.lp
Objective sense      : Maximize
Variables            :   53805  [Nneg: 1,  Box: 22000,  Free: 4464,
                                 Binary: 27340]
Objective nonzeros   :    8995
Linear constraints   :  123205  [Less: 41346,  Greater: 59096,  Equal: 22763]
  Nonzeros           :  291719
  RHS nonzeros       :   67457

Variables            : Min LB: -5000.000        Max UB: 1000000.       
Objective nonzeros   : Min   : 1.600000         Max   : 2500.000       
Linear constraints   :
  Nonzeros           : Min   : 0.8500000        Max   : 1000000.       
  RHS nonzeros       : Min   : 1.000000         Max   : 1000000.       
CPLEX> CPXPARAM_Parallel                                -1
CPXPARAM_Simplex_Tolerances_Feasibility          0.01
CPXPARAM_DetTimeLimit                            75000
CPXPARAM_MIP_Tolerances_MIPGap                   0.01
CPXPARAM_MIP_Tolerances_Integrality              1.0000000000000001e-09
Tried aggregator 3 times.
MIP Presolve eliminated 88840 rows and 19138 columns.
MIP Presolve added 3339 rows and 0 columns.
MIP Presolve modified 24830 coefficients.
Aggregator did 12973 substitutions.
Reduced MIP has 24731 rows, 21112 columns, and 70608 nonzeros.
Reduced MIP has 8342 binaries, 0 generals, 0 SOSs, and 0 indicators.
Presolve time = 0.23 sec. (172.24 ticks)
Probing fixed 368 vars, tightened 2804 bounds.
Probing time = 1.38 sec. (880.95 ticks)
Tried aggregator 2 times.
MIP Presolve eliminated 839 rows and 745 columns.
MIP Presolve modified 2179 coefficients.
Aggregator did 43 substitutions.
Reduced MIP has 23849 rows, 20324 columns, and 68051 nonzeros.
Reduced MIP has 7970 binaries, 0 generals, 0 SOSs, and 0 indicators.
Presolve time = 0.09 sec. (70.46 ticks)
Probing time = 0.03 sec. (16.37 ticks)
Clique table members: 6418.
MIP emphasis: balance optimality and feasibility.
MIP search method: dynamic search.
Parallel mode: opportunistic, using up to 24 threads.
Root relaxation solution time = 0.39 sec. (491.60 ticks)

        Nodes                                         Cuts/
   Node  Left     Objective  IInf  Best Integer    Best Bound    ItCnt     Gap

      0     0        0.0000   654                      0.0000     5470         
*     0     0      integral     0        0.0000        0.0000     5471    0.00%
Elapsed time = 3.78 sec. (2699.57 ticks, tree = 0.01 MB, solutions = 1)

Root node processing (before b&c):
  Real time             =    3.81 sec. (2701.51 ticks)
Parallel b&c, 24 threads:
  Real time             =    0.00 sec. (0.00 ticks)
  Sync time (average)   =    0.00 sec.
  Wait time (average)   =    0.00 sec.
                          ------------
Total (root+branch&cut) =    3.81 sec. (2701.51 ticks)

Solution pool: 1 solution saved.

MIP - Integer optimal solution:  Objective =  2.0190782379e-10
Solution time =    3.83 sec.  Iterations = 5471  Nodes = 0
Deterministic time = 2701.67 ticks  (705.76 ticks/sec)

CPLEX> Incumbent solution written to file 'C:\Users\Luke\Desktop\test919\logs\tmphje_4tgr.cplex.sol'.
CPLEX> NOTE: no warmstart specified for MIP iteration, default behavior is true
NOTE: resolving with all competitive generators using storage-only solution to warmstart
Solving...

Welcome to IBM(R) ILOG(R) CPLEX(R) Interactive Optimizer 12.9.0.0
  with Simplex, Mixed Integer & Barrier Optimizers
5725-A06 5725-A29 5724-Y48 5724-Y49 5724-Y54 5724-Y55 5655-Y21
Copyright IBM Corp. 1988, 2019.  All Rights Reserved.

Type 'help' for a list of available commands.
Type 'help' followed by a command name for more
information on commands.

CPLEX> Logfile 'cplex.log' closed.
Logfile 'C:\Users\Luke\Desktop\test919\logs\tmprifckwws.cplex.log' open.
CPLEX> New value for parallel optimization mode: -1
CPLEX> New value for mixed integer optimality gap tolerance: 0.01
CPLEX> New value for integrality tolerance: 1e-09
CPLEX> New value for feasibility tolerance: 0.01
CPLEX> New value for deterministic time limit in ticks: 75000
CPLEX> Problem 'C:\Users\Luke\Desktop\test919\logs\tmp3wdys2ac.pyomo.lp' read.
Read time = 0.20 sec. (14.75 ticks)
CPLEX> MIP start file 'C:\Users\Luke\Desktop\test919\logs\tmpj2n9dlwl.cplex.mst' read.
CPLEX> Problem name         : C:\Users\Luke\Desktop\test919\logs\tmp3wdys2ac.pyomo.lp
Objective sense      : Maximize
Variables            :   54525  [Nneg: 1,  Box: 22720,  Free: 4464,
                                 Binary: 27340]
Objective nonzeros   :    9715
Linear constraints   :  123205  [Less: 41346,  Greater: 59096,  Equal: 22763]
  Nonzeros           :  291719
  RHS nonzeros       :   67457

Variables            : Min LB: -5000.000        Max UB: 1000000.       
Objective nonzeros   : Min   : 1.600000         Max   : 2500.000       
Linear constraints   :
  Nonzeros           : Min   : 0.8500000        Max   : 1000000.       
  RHS nonzeros       : Min   : 1.000000         Max   : 1000000.       
CPLEX> CPXPARAM_Parallel                                -1
CPXPARAM_Simplex_Tolerances_Feasibility          0.01
CPXPARAM_DetTimeLimit                            75000
CPXPARAM_MIP_Tolerances_MIPGap                   0.01
CPXPARAM_MIP_Tolerances_Integrality              1.0000000000000001e-09
Warning:  No solution found from 1 MIP starts.
Retaining values of one MIP start for possible repair.
Tried aggregator 3 times.
MIP Presolve eliminated 88840 rows and 19858 columns.
MIP Presolve added 3339 rows and 0 columns.
MIP Presolve modified 24830 coefficients.
Aggregator did 12973 substitutions.
Reduced MIP has 24731 rows, 21112 columns, and 70608 nonzeros.
Reduced MIP has 8342 binaries, 0 generals, 0 SOSs, and 0 indicators.
Presolve time = 0.25 sec. (172.60 ticks)
Probing fixed 368 vars, tightened 2804 bounds.
Probing time = 1.47 sec. (880.95 ticks)
Tried aggregator 2 times.
MIP Presolve eliminated 839 rows and 745 columns.
MIP Presolve modified 2179 coefficients.
Aggregator did 43 substitutions.
Reduced MIP has 23849 rows, 20324 columns, and 68051 nonzeros.
Reduced MIP has 7970 binaries, 0 generals, 0 SOSs, and 0 indicators.
Presolve time = 0.09 sec. (70.46 ticks)
Probing time = 0.03 sec. (16.37 ticks)
Clique table members: 6418.
MIP emphasis: balance optimality and feasibility.
MIP search method: dynamic search.
Parallel mode: opportunistic, using up to 24 threads.
Root relaxation solution time = 0.44 sec. (491.60 ticks)

        Nodes                                         Cuts/
   Node  Left     Objective  IInf  Best Integer    Best Bound    ItCnt     Gap

      0     0        0.0000   654                      0.0000     5470         
*     0     0      integral     0        0.0000        0.0000     5471    0.00%
Elapsed time = 4.05 sec. (2730.31 ticks, tree = 0.01 MB, solutions = 1)

Root node processing (before b&c):
  Real time             =    4.06 sec. (2732.27 ticks)
Parallel b&c, 24 threads:
  Real time             =    0.00 sec. (0.00 ticks)
  Sync time (average)   =    0.00 sec.
  Wait time (average)   =    0.00 sec.
                          ------------
Total (root+branch&cut) =    4.06 sec. (2732.27 ticks)

Solution pool: 1 solution saved.

MIP - Integer optimal solution:  Objective =  1.9917933969e-10
Solution time =    4.06 sec.  Iterations = 5471  Nodes = 0
Deterministic time = 2732.43 ticks  (672.52 ticks/sec)

CPLEX> Incumbent solution written to file 'C:\Users\Luke\Desktop\test919\logs\tmpht53mcgn.cplex.sol'.
CPLEX> Exporting results... 
